NAME : ct_3_n_2_k10_t_70
COMMENT : (ct_3_n_2_k10_t_70, Min no of trucks: 2, Optimal value: 41.269075682970495, Split: Yes)
TYPE : SDVRP
DIMENSION : 4
EDGE_WEIGHT_TYPE : EUC_2D
CAPACITY : 10
NODE_COORD_SECTION
1 0 0
2 2 4
3 8 1
4 -1 -10
DEMAND_SECTION
1 0
2 4.7
3 5.8
4 3.5
DEPOT_SECTION
 1
EOF